15
1 0 7
2 0 2
2 1 6
3 0 7
3 1 3
3 2 7
4 0 1
4 1 4
4 2 5
4 3 6
5 0 4
5 1 1
5 2 3
5 3 3
5 4 5
6 0 3
6 1 4
6 2 1
6 3 3
6 4 2
6 5 4
7 0 5
7 1 2
7 2 1
7 3 7
7 4 5
7 5 3
7 6 3
8 0 3
8 1 5
8 2 5
8 3 3
8 4 7
8 5 6
8 6 5
8 7 5
9 0 3
9 1 3
9 2 6
9 3 7
9 4 5
9 5 7
9 6 4
9 7 1
9 8 3
10 0 3
10 1 4
10 2 5
10 3 6
10 4 2
10 5 7
10 6 7
10 7 5
10 8 4
10 9 1
11 0 7
11 1 1
11 2 4
11 3 7
11 4 5
11 5 6
11 6 4
11 7 3
11 8 5
11 9 3
11 10 7
12 0 4
12 1 4
12 2 1
12 3 5
12 4 2
12 5 7
12 6 2
12 7 2
12 8 4
12 9 2
12 10 6
12 11 6
13 0 5
13 1 5
13 2 4
13 3 7
13 4 2
13 5 6
13 6 4
13 7 1
13 8 2
13 9 2
13 10 3
13 11 4
13 12 6
14 0 5
14 1 6
14 2 5
14 3 3
14 4 6
14 5 3
14 6 5
14 7 4
14 8 2
14 9 6
14 10 5
14 11 1
14 12 5
14 13 5
